column=10;
row=10;
Board=[|0,0,0,7,0,6,3,1,0,0|0,0,0,4,10,2,0,9,5,0|3,0,0,0,6,8,0,7,0,0|0,4,0,0,9,0,0,0,0,0|0,0,0,10,0,9,0,0,6,0|0,0,3,6,2,1,0,0,0,0|0,8,10,0,0,0,0,3,4,0|0,6,0,0,0,0,0,2,0,7|0,0,0,5,0,10,0,0,0,0|9,0,6,0,5,0,0,0,0,0|];
horizontal=[|0,0,0,1,0,0,0,0,0|0,0,0,0,0,0,0,0,0|0,0,0,0,0,0,0,0,0|1,0,0,0,0,1,0,0,0|0,1,0,0,0,1,0,1,0|0,0,0,0,1,0,0,0,0|1,0,1,0,0,0,1,1,0|0,1,0,0,1,0,1,0,0|1,0,0,0,0,0,0,0,1|0,1,0,0,1,0,0,0,1|];
vertical=[|0,0,0,0,0,0,0,0,0,0|0,0,0,0,0,0,0,0,0,0|0,0,0,1,0,1,1,0,1,0|1,0,0,0,0,0,0,0,0,0|0,0,1,0,0,0,1,1,1,0|1,0,0,0,1,0,0,1,0,1|0,0,0,1,0,0,1,1,0,1|0,0,0,0,1,0,0,0,1,0|0,0,1,0,0,0,0,0,0,0|];
